p tw 110 117
1 2
2 3
11 15
101 102
102 103
103 104
104 105
105 106
106 107
107 108
108 109
109 110
12 13
13 14
14 15
15 16
16 17
17 18
18 19
19 20
19 21
20 21
20 73
3 4
21 22
22 23
23 24
24 25
25 26
25 49
26 27
27 28
28 29
29 30
30 31
4 5
31 32
32 33
33 34
33 37
34 35
35 36
36 68
37 38
38 39
39 40
40 41
5 6
41 42
42 43
43 44
44 45
45 46
46 47
47 48
48 68
49 50
50 51
6 7
51 52
52 53
53 54
54 55
55 56
56 57
57 58
57 60
58 59
59 60
60 61
7 12
7 8
61 62
62 63
63 64
64 65
65 66
66 67
67 68
68 69
69 107
69 70
70 71
8 9
71 72
72 107
73 74
74 75
75 76
76 77
77 78
77 80
78 79
79 107
80 81
9 10
81 82
82 83
83 84
84 85
85 86
86 87
87 88
88 89
89 90
90 91
10 11
91 92
92 93
93 94
94 95
95 96
96 97
97 98
98 99
99 100
100 101
